INCAR created by Atomic Simulation Environment
 LCHARG = .FALSE.
 LWAVE = .FALSE.
 ENCUT = 400
